NAME 
OBJSENSE MAX
ROWS
 N  OBJ
 L  packing[0]
 L  packing[1]
 L  packing[2]
 L  packing[3]
 L  packing[4]
 L  packing[5]
 L  packing[6]
 L  packing[7]
 L  packing[8]
 L  packing[9]
 L  packing[10]
 L  packing[11]
 L  packing[12]
 L  packing[13]
 L  packing[14]
 L  packing[15]
 L  packing[16]
 L  packing[17]
 L  packing[18]
 L  packing[19]
 L  packing[20]
 L  packing[21]
 L  packing[22]
 L  packing[23]
 L  packing[24]
 L  packing[25]
 L  packing[26]
 L  packing[27]
 L  packing[28]
 L  packing[29]
 L  packing[30]
 L  packing[31]
 L  packing[32]
 L  packing[33]
 L  packing[34]
 L  packing[35]
 L  packing[36]
 L  packing[37]
 L  packing[38]
 L  packing[39]
 L  packing[40]
 L  packing[41]
 L  packing[42]
 L  packing[43]
 L  packing[44]
 L  packing[45]
 L  packing[46]
 L  packing[47]
 L  packing[48]
 L  packing[49]
 L  R52     
COLUMNS
    MARKER    'MARKER'                 'INTORG'
    x[1]      OBJ       32
    x[1]      packing[0]  67
    x[1]      packing[4]  40
    x[1]      packing[5]  3
    x[1]      packing[6]  196
    x[1]      packing[7]  11
    x[1]      packing[8]  141
    x[1]      packing[13]  53
    x[1]      packing[14]  156
    x[1]      packing[15]  181
    x[1]      packing[17]  130
    x[1]      packing[18]  142
    x[1]      packing[19]  85
    x[1]      packing[20]  110
    x[1]      packing[22]  97
    x[1]      packing[23]  35
    x[1]      packing[24]  51
    x[1]      packing[26]  190
    x[1]      packing[28]  70
    x[1]      packing[29]  85
    x[1]      packing[30]  62
    x[1]      packing[32]  40
    x[1]      packing[33]  140
    x[1]      packing[34]  105
    x[1]      packing[35]  68
    x[1]      packing[36]  28
    x[1]      packing[38]  106
    x[1]      packing[39]  26
    x[1]      packing[40]  144
    x[1]      packing[42]  129
    x[1]      packing[43]  145
    x[1]      packing[45]  164
    x[1]      packing[46]  25
    x[1]      packing[47]  191
    x[1]      packing[48]  109
    x[1]      packing[49]  66
    x[2]      OBJ       43
    x[2]      packing[0]  187
    x[2]      packing[1]  25
    x[2]      packing[4]  102
    x[2]      packing[6]  151
    x[2]      packing[7]  97
    x[2]      packing[8]  59
    x[2]      packing[9]  8
    x[2]      packing[10]  73
    x[2]      packing[13]  88
    x[2]      packing[14]  123
    x[2]      packing[15]  128
    x[2]      packing[16]  94
    x[2]      packing[17]  117
    x[2]      packing[18]  115
    x[2]      packing[19]  124
    x[2]      packing[20]  77
    x[2]      packing[21]  179
    x[2]      packing[22]  157
    x[2]      packing[23]  171
    x[2]      packing[26]  41
    x[2]      packing[27]  152
    x[2]      packing[30]  142
    x[2]      packing[31]  71
    x[2]      packing[32]  11
    x[2]      packing[34]  70
    x[2]      packing[35]  153
    x[2]      packing[36]  113
    x[2]      packing[38]  86
    x[2]      packing[39]  89
    x[2]      packing[42]  122
    x[2]      packing[43]  65
    x[2]      packing[44]  100
    x[2]      packing[45]  142
    x[2]      packing[46]  182
    x[2]      packing[47]  196
    x[2]      packing[48]  165
    x[3]      OBJ       19
    x[3]      packing[0]  91
    x[3]      packing[1]  90
    x[3]      packing[2]  93
    x[3]      packing[4]  56
    x[3]      packing[5]  178
    x[3]      packing[6]  189
    x[3]      packing[9]  1
    x[3]      packing[10]  158
    x[3]      packing[11]  122
    x[3]      packing[12]  120
    x[3]      packing[13]  10
    x[3]      packing[14]  46
    x[3]      packing[16]  186
    x[3]      packing[17]  198
    x[3]      packing[19]  39
    x[3]      packing[20]  99
    x[3]      packing[21]  53
    x[3]      packing[23]  151
    x[3]      packing[24]  71
    x[3]      packing[25]  49
    x[3]      packing[27]  9
    x[3]      packing[28]  56
    x[3]      packing[29]  76
    x[3]      packing[30]  7
    x[3]      packing[31]  133
    x[3]      packing[32]  72
    x[3]      packing[33]  7
    x[3]      packing[34]  16
    x[3]      packing[35]  112
    x[3]      packing[36]  113
    x[3]      packing[37]  56
    x[3]      packing[38]  5
    x[3]      packing[39]  185
    x[3]      packing[40]  180
    x[3]      packing[41]  72
    x[3]      packing[42]  195
    x[3]      packing[45]  104
    x[3]      packing[46]  40
    x[3]      packing[47]  159
    x[3]      packing[48]  170
    x[4]      OBJ       154
    x[4]      packing[3]  126
    x[4]      packing[6]  80
    x[4]      packing[8]  127
    x[4]      packing[9]  58
    x[4]      packing[11]  13
    x[4]      packing[12]  194
    x[4]      packing[13]  24
    x[4]      packing[14]  185
    x[4]      packing[15]  99
    x[4]      packing[16]  58
    x[4]      packing[17]  73
    x[4]      packing[20]  168
    x[4]      packing[21]  123
    x[4]      packing[23]  70
    x[4]      packing[24]  109
    x[4]      packing[26]  45
    x[4]      packing[27]  101
    x[4]      packing[29]  5
    x[4]      packing[31]  167
    x[4]      packing[32]  137
    x[4]      packing[33]  69
    x[4]      packing[34]  155
    x[4]      packing[35]  199
    x[4]      packing[36]  99
    x[4]      packing[38]  107
    x[4]      packing[39]  114
    x[4]      packing[40]  171
    x[4]      packing[41]  118
    x[4]      packing[42]  30
    x[4]      packing[43]  14
    x[4]      packing[44]  188
    x[4]      packing[45]  132
    x[4]      packing[47]  178
    x[4]      packing[48]  181
    x[4]      packing[49]  38
    x[5]      OBJ       122
    x[5]      packing[0]  191
    x[5]      packing[1]  168
    x[5]      packing[2]  97
    x[5]      packing[3]  90
    x[5]      packing[4]  165
    x[5]      packing[6]  7
    x[5]      packing[7]  138
    x[5]      packing[8]  59
    x[5]      packing[12]  19
    x[5]      packing[13]  62
    x[5]      packing[14]  87
    x[5]      packing[15]  193
    x[5]      packing[16]  66
    x[5]      packing[18]  58
    x[5]      packing[21]  19
    x[5]      packing[22]  4
    x[5]      packing[23]  136
    x[5]      packing[24]  119
    x[5]      packing[25]  165
    x[5]      packing[26]  86
    x[5]      packing[27]  198
    x[5]      packing[29]  187
    x[5]      packing[31]  57
    x[5]      packing[33]  16
    x[5]      packing[34]  53
    x[5]      packing[35]  30
    x[5]      packing[36]  175
    x[5]      packing[37]  28
    x[5]      packing[39]  40
    x[5]      packing[40]  161
    x[5]      packing[41]  147
    x[5]      packing[43]  106
    x[5]      packing[44]  194
    x[5]      packing[45]  46
    x[5]      packing[46]  50
    x[5]      packing[48]  95
    x[5]      packing[49]  72
    x[6]      OBJ       105
    x[6]      packing[0]  19
    x[6]      packing[1]  130
    x[6]      packing[2]  133
    x[6]      packing[4]  114
    x[6]      packing[6]  178
    x[6]      packing[7]  77
    x[6]      packing[8]  198
    x[6]      packing[9]  16
    x[6]      packing[11]  147
    x[6]      packing[12]  97
    x[6]      packing[13]  102
    x[6]      packing[14]  94
    x[6]      packing[15]  129
    x[6]      packing[16]  114
    x[6]      packing[18]  77
    x[6]      packing[19]  96
    x[6]      packing[20]  88
    x[6]      packing[21]  25
    x[6]      packing[22]  135
    x[6]      packing[23]  121
    x[6]      packing[24]  174
    x[6]      packing[25]  56
    x[6]      packing[26]  174
    x[6]      packing[27]  146
    x[6]      packing[29]  91
    x[6]      packing[30]  195
    x[6]      packing[31]  124
    x[6]      packing[32]  160
    x[6]      packing[33]  157
    x[6]      packing[34]  87
    x[6]      packing[35]  113
    x[6]      packing[36]  174
    x[6]      packing[37]  138
    x[6]      packing[39]  94
    x[6]      packing[40]  195
    x[6]      packing[41]  1
    x[6]      packing[42]  2
    x[6]      packing[44]  96
    x[6]      packing[45]  108
    x[6]      packing[46]  28
    x[6]      packing[48]  32
    x[6]      R52       1
    x[7]      OBJ       55
    x[7]      packing[2]  33
    x[7]      packing[3]  18
    x[7]      packing[4]  7
    x[7]      packing[5]  141
    x[7]      packing[6]  175
    x[7]      packing[7]  51
    x[7]      packing[9]  1
    x[7]      packing[10]  180
    x[7]      packing[11]  79
    x[7]      packing[12]  84
    x[7]      packing[13]  113
    x[7]      packing[14]  100
    x[7]      packing[15]  160
    x[7]      packing[16]  95
    x[7]      packing[18]  165
    x[7]      packing[21]  35
    x[7]      packing[22]  123
    x[7]      packing[23]  1
    x[7]      packing[25]  74
    x[7]      packing[26]  153
    x[7]      packing[27]  69
    x[7]      packing[28]  194
    x[7]      packing[30]  101
    x[7]      packing[31]  52
    x[7]      packing[33]  172
    x[7]      packing[35]  51
    x[7]      packing[36]  121
    x[7]      packing[37]  4
    x[7]      packing[38]  69
    x[7]      packing[41]  84
    x[7]      packing[44]  75
    x[7]      packing[45]  57
    x[7]      packing[46]  86
    x[7]      packing[48]  180
    x[7]      packing[49]  189
    x[8]      OBJ       133
    x[8]      packing[0]  179
    x[8]      packing[1]  180
    x[8]      packing[2]  36
    x[8]      packing[3]  125
    x[8]      packing[4]  127
    x[8]      packing[7]  148
    x[8]      packing[9]  178
    x[8]      packing[10]  66
    x[8]      packing[11]  94
    x[8]      packing[14]  76
    x[8]      packing[15]  193
    x[8]      packing[16]  134
    x[8]      packing[18]  97
    x[8]      packing[20]  42
    x[8]      packing[21]  173
    x[8]      packing[22]  190
    x[8]      packing[23]  100
    x[8]      packing[24]  12
    x[8]      packing[25]  196
    x[8]      packing[26]  198
    x[8]      packing[28]  171
    x[8]      packing[29]  45
    x[8]      packing[30]  94
    x[8]      packing[31]  125
    x[8]      packing[32]  68
    x[8]      packing[33]  19
    x[8]      packing[34]  50
    x[8]      packing[35]  176
    x[8]      packing[36]  18
    x[8]      packing[37]  89
    x[8]      packing[38]  185
    x[8]      packing[39]  167
    x[8]      packing[40]  162
    x[8]      packing[41]  177
    x[8]      packing[42]  98
    x[8]      packing[43]  167
    x[8]      packing[44]  144
    x[8]      packing[45]  91
    x[8]      packing[47]  19
    x[8]      packing[48]  129
    x[8]      packing[49]  170
    x[9]      OBJ       95
    x[9]      packing[0]  35
    x[9]      packing[1]  162
    x[9]      packing[2]  169
    x[9]      packing[3]  195
    x[9]      packing[4]  9
    x[9]      packing[6]  19
    x[9]      packing[7]  111
    x[9]      packing[8]  171
    x[9]      packing[9]  47
    x[9]      packing[10]  160
    x[9]      packing[11]  179
    x[9]      packing[12]  55
    x[9]      packing[13]  120
    x[9]      packing[14]  66
    x[9]      packing[15]  111
    x[9]      packing[18]  148
    x[9]      packing[19]  143
    x[9]      packing[20]  100
    x[9]      packing[21]  67
    x[9]      packing[22]  114
    x[9]      packing[25]  30
    x[9]      packing[26]  163
    x[9]      packing[29]  91
    x[9]      packing[30]  88
    x[9]      packing[31]  166
    x[9]      packing[32]  101
    x[9]      packing[33]  74
    x[9]      packing[34]  164
    x[9]      packing[36]  6
    x[9]      packing[37]  156
    x[9]      packing[39]  159
    x[9]      packing[40]  141
    x[9]      packing[42]  149
    x[9]      packing[43]  52
    x[9]      packing[44]  173
    x[9]      packing[46]  131
    x[9]      packing[47]  42
    x[9]      packing[49]  53
    x[10]     OBJ       170
    x[10]     packing[0]  90
    x[10]     packing[1]  26
    x[10]     packing[2]  83
    x[10]     packing[3]  171
    x[10]     packing[4]  155
    x[10]     packing[5]  91
    x[10]     packing[6]  129
    x[10]     packing[7]  131
    x[10]     packing[9]  38
    x[10]     packing[10]  108
    x[10]     packing[11]  26
    x[10]     packing[12]  149
    x[10]     packing[13]  199
    x[10]     packing[15]  129
    x[10]     packing[16]  135
    x[10]     packing[18]  147
    x[10]     packing[19]  171
    x[10]     packing[20]  182
    x[10]     packing[21]  78
    x[10]     packing[22]  67
    x[10]     packing[23]  3
    x[10]     packing[24]  1
    x[10]     packing[25]  142
    x[10]     packing[26]  32
    x[10]     packing[27]  61
    x[10]     packing[29]  184
    x[10]     packing[30]  176
    x[10]     packing[31]  196
    x[10]     packing[33]  127
    x[10]     packing[34]  7
    x[10]     packing[35]  95
    x[10]     packing[36]  91
    x[10]     packing[37]  190
    x[10]     packing[40]  146
    x[10]     packing[41]  170
    x[10]     packing[45]  76
    x[10]     packing[46]  24
    x[10]     packing[47]  40
    x[10]     packing[49]  132
    x[10]     R52       1
    x[11]     OBJ       130
    x[11]     packing[0]  192
    x[11]     packing[1]  21
    x[11]     packing[2]  151
    x[11]     packing[5]  121
    x[11]     packing[7]  135
    x[11]     packing[8]  37
    x[11]     packing[10]  102
    x[11]     packing[12]  189
    x[11]     packing[13]  69
    x[11]     packing[15]  142
    x[11]     packing[18]  190
    x[11]     packing[19]  79
    x[11]     packing[20]  110
    x[11]     packing[22]  21
    x[11]     packing[23]  26
    x[11]     packing[24]  132
    x[11]     packing[25]  171
    x[11]     packing[27]  4
    x[11]     packing[28]  177
    x[11]     packing[29]  141
    x[11]     packing[30]  21
    x[11]     packing[31]  17
    x[11]     packing[34]  185
    x[11]     packing[37]  192
    x[11]     packing[38]  131
    x[11]     packing[39]  55
    x[11]     packing[40]  94
    x[11]     packing[41]  15
    x[11]     packing[42]  70
    x[11]     packing[43]  25
    x[11]     packing[44]  137
    x[11]     packing[45]  166
    x[11]     packing[47]  15
    x[11]     packing[48]  144
    x[11]     R52       1
    x[12]     OBJ       141
    x[12]     packing[0]  57
    x[12]     packing[2]  135
    x[12]     packing[5]  50
    x[12]     packing[7]  185
    x[12]     packing[8]  50
    x[12]     packing[10]  125
    x[12]     packing[12]  174
    x[12]     packing[13]  83
    x[12]     packing[14]  9
    x[12]     packing[15]  128
    x[12]     packing[17]  83
    x[12]     packing[18]  191
    x[12]     packing[19]  196
    x[12]     packing[20]  12
    x[12]     packing[21]  60
    x[12]     packing[22]  178
    x[12]     packing[23]  16
    x[12]     packing[24]  20
    x[12]     packing[26]  174
    x[12]     packing[27]  77
    x[12]     packing[28]  36
    x[12]     packing[30]  90
    x[12]     packing[31]  2
    x[12]     packing[32]  137
    x[12]     packing[34]  43
    x[12]     packing[35]  170
    x[12]     packing[36]  91
    x[12]     packing[39]  29
    x[12]     packing[40]  20
    x[12]     packing[41]  125
    x[12]     packing[42]  37
    x[12]     packing[43]  80
    x[12]     packing[44]  86
    x[12]     packing[46]  157
    x[12]     packing[47]  182
    x[12]     packing[49]  78
    x[13]     OBJ       98
    x[13]     packing[0]  99
    x[13]     packing[1]  144
    x[13]     packing[2]  72
    x[13]     packing[3]  155
    x[13]     packing[4]  181
    x[13]     packing[5]  20
    x[13]     packing[7]  162
    x[13]     packing[8]  187
    x[13]     packing[9]  113
    x[13]     packing[10]  176
    x[13]     packing[11]  108
    x[13]     packing[12]  149
    x[13]     packing[13]  157
    x[13]     packing[15]  149
    x[13]     packing[16]  49
    x[13]     packing[18]  130
    x[13]     packing[19]  42
    x[13]     packing[22]  87
    x[13]     packing[23]  130
    x[13]     packing[26]  99
    x[13]     packing[27]  162
    x[13]     packing[28]  79
    x[13]     packing[32]  158
    x[13]     packing[33]  106
    x[13]     packing[34]  16
    x[13]     packing[35]  10
    x[13]     packing[36]  199
    x[13]     packing[37]  47
    x[13]     packing[38]  84
    x[13]     packing[39]  88
    x[13]     packing[40]  33
    x[13]     packing[42]  26
    x[13]     packing[43]  135
    x[13]     packing[44]  26
    x[13]     packing[45]  140
    x[13]     packing[47]  106
    x[13]     packing[48]  161
    x[13]     packing[49]  164
    x[14]     OBJ       149
    x[14]     packing[0]  51
    x[14]     packing[1]  128
    x[14]     packing[2]  153
    x[14]     packing[3]  187
    x[14]     packing[4]  50
    x[14]     packing[6]  121
    x[14]     packing[7]  169
    x[14]     packing[8]  198
    x[14]     packing[9]  82
    x[14]     packing[11]  161
    x[14]     packing[12]  114
    x[14]     packing[13]  118
    x[14]     packing[14]  173
    x[14]     packing[16]  19
    x[14]     packing[18]  123
    x[14]     packing[19]  115
    x[14]     packing[20]  78
    x[14]     packing[21]  72
    x[14]     packing[22]  106
    x[14]     packing[23]  133
    x[14]     packing[29]  30
    x[14]     packing[30]  47
    x[14]     packing[33]  50
    x[14]     packing[36]  194
    x[14]     packing[37]  45
    x[14]     packing[38]  6
    x[14]     packing[39]  145
    x[14]     packing[40]  109
    x[14]     packing[41]  165
    x[14]     packing[42]  18
    x[14]     packing[44]  30
    x[14]     packing[45]  63
    x[14]     packing[48]  173
    x[14]     packing[49]  157
    x[14]     R52       1
    x[15]     OBJ       73
    x[15]     packing[0]  46
    x[15]     packing[1]  193
    x[15]     packing[2]  5
    x[15]     packing[5]  160
    x[15]     packing[6]  130
    x[15]     packing[9]  23
    x[15]     packing[10]  62
    x[15]     packing[11]  171
    x[15]     packing[12]  108
    x[15]     packing[14]  139
    x[15]     packing[16]  60
    x[15]     packing[17]  102
    x[15]     packing[18]  83
    x[15]     packing[19]  128
    x[15]     packing[20]  170
    x[15]     packing[22]  129
    x[15]     packing[23]  170
    x[15]     packing[24]  129
    x[15]     packing[25]  126
    x[15]     packing[26]  186
    x[15]     packing[28]  128
    x[15]     packing[29]  110
    x[15]     packing[30]  154
    x[15]     packing[31]  74
    x[15]     packing[32]  49
    x[15]     packing[33]  26
    x[15]     packing[35]  103
    x[15]     packing[36]  20
    x[15]     packing[37]  181
    x[15]     packing[39]  174
    x[15]     packing[40]  151
    x[15]     packing[41]  156
    x[15]     packing[42]  75
    x[15]     packing[43]  150
    x[15]     packing[44]  31
    x[15]     packing[45]  56
    x[15]     packing[46]  186
    x[15]     packing[47]  35
    x[15]     packing[48]  191
    x[16]     OBJ       167
    x[16]     packing[0]  144
    x[16]     packing[3]  75
    x[16]     packing[4]  169
    x[16]     packing[5]  197
    x[16]     packing[6]  71
    x[16]     packing[10]  156
    x[16]     packing[11]  23
    x[16]     packing[12]  188
    x[16]     packing[13]  183
    x[16]     packing[14]  131
    x[16]     packing[15]  44
    x[16]     packing[16]  58
    x[16]     packing[17]  117
    x[16]     packing[19]  148
    x[16]     packing[20]  164
    x[16]     packing[21]  192
    x[16]     packing[22]  61
    x[16]     packing[23]  89
    x[16]     packing[24]  81
    x[16]     packing[25]  190
    x[16]     packing[26]  113
    x[16]     packing[27]  112
    x[16]     packing[28]  176
    x[16]     packing[29]  77
    x[16]     packing[31]  105
    x[16]     packing[34]  135
    x[16]     packing[35]  103
    x[16]     packing[36]  140
    x[16]     packing[37]  168
    x[16]     packing[38]  60
    x[16]     packing[40]  65
    x[16]     packing[41]  112
    x[16]     packing[43]  45
    x[16]     packing[44]  186
    x[16]     packing[45]  88
    x[16]     packing[46]  47
    x[16]     packing[48]  63
    x[16]     packing[49]  23
    x[16]     R52       1
    x[17]     OBJ       142
    x[17]     packing[0]  3
    x[17]     packing[1]  115
    x[17]     packing[2]  145
    x[17]     packing[3]  175
    x[17]     packing[4]  69
    x[17]     packing[5]  184
    x[17]     packing[6]  38
    x[17]     packing[7]  115
    x[17]     packing[9]  29
    x[17]     packing[10]  169
    x[17]     packing[13]  165
    x[17]     packing[14]  172
    x[17]     packing[15]  168
    x[17]     packing[16]  28
    x[17]     packing[17]  152
    x[17]     packing[20]  63
    x[17]     packing[21]  121
    x[17]     packing[22]  80
    x[17]     packing[25]  40
    x[17]     packing[26]  35
    x[17]     packing[27]  189
    x[17]     packing[28]  76
    x[17]     packing[29]  25
    x[17]     packing[30]  146
    x[17]     packing[31]  112
    x[17]     packing[32]  133
    x[17]     packing[33]  114
    x[17]     packing[35]  10
    x[17]     packing[36]  2
    x[17]     packing[38]  71
    x[17]     packing[39]  159
    x[17]     packing[40]  154
    x[17]     packing[41]  136
    x[17]     packing[44]  46
    x[17]     packing[46]  49
    x[17]     packing[47]  131
    x[17]     packing[48]  193
    x[17]     R52       1
    x[18]     OBJ       100
    x[18]     packing[0]  135
    x[18]     packing[1]  122
    x[18]     packing[2]  24
    x[18]     packing[3]  103
    x[18]     packing[5]  76
    x[18]     packing[6]  174
    x[18]     packing[7]  73
    x[18]     packing[9]  171
    x[18]     packing[10]  35
    x[18]     packing[11]  119
    x[18]     packing[12]  146
    x[18]     packing[13]  97
    x[18]     packing[14]  112
    x[18]     packing[15]  151
    x[18]     packing[16]  144
    x[18]     packing[17]  135
    x[18]     packing[19]  96
    x[18]     packing[22]  6
    x[18]     packing[24]  13
    x[18]     packing[26]  169
    x[18]     packing[28]  155
    x[18]     packing[29]  192
    x[18]     packing[31]  17
    x[18]     packing[32]  159
    x[18]     packing[34]  70
    x[18]     packing[35]  61
    x[18]     packing[36]  133
    x[18]     packing[38]  135
    x[18]     packing[42]  123
    x[18]     packing[45]  188
    x[18]     packing[46]  65
    x[18]     packing[47]  171
    x[18]     packing[48]  135
    x[19]     OBJ       12
    x[19]     packing[0]  14
    x[19]     packing[1]  145
    x[19]     packing[2]  121
    x[19]     packing[3]  98
    x[19]     packing[4]  101
    x[19]     packing[5]  13
    x[19]     packing[6]  184
    x[19]     packing[8]  89
    x[19]     packing[10]  54
    x[19]     packing[11]  186
    x[19]     packing[12]  194
    x[19]     packing[13]  27
    x[19]     packing[15]  137
    x[19]     packing[16]  140
    x[19]     packing[18]  86
    x[19]     packing[20]  49
    x[19]     packing[21]  130
    x[19]     packing[23]  109
    x[19]     packing[24]  172
    x[19]     packing[26]  41
    x[19]     packing[27]  174
    x[19]     packing[28]  142
    x[19]     packing[29]  142
    x[19]     packing[30]  28
    x[19]     packing[31]  2
    x[19]     packing[34]  27
    x[19]     packing[35]  133
    x[19]     packing[36]  21
    x[19]     packing[37]  89
    x[19]     packing[38]  112
    x[19]     packing[39]  95
    x[19]     packing[40]  8
    x[19]     packing[44]  25
    x[19]     packing[45]  85
    x[19]     packing[47]  14
    x[19]     packing[48]  108
    x[19]     packing[49]  149
    x[20]     OBJ       84
    x[20]     packing[0]  74
    x[20]     packing[1]  21
    x[20]     packing[2]  88
    x[20]     packing[3]  30
    x[20]     packing[5]  92
    x[20]     packing[6]  115
    x[20]     packing[7]  123
    x[20]     packing[9]  143
    x[20]     packing[10]  198
    x[20]     packing[11]  6
    x[20]     packing[12]  125
    x[20]     packing[13]  50
    x[20]     packing[14]  117
    x[20]     packing[16]  59
    x[20]     packing[18]  46
    x[20]     packing[19]  92
    x[20]     packing[20]  46
    x[20]     packing[21]  148
    x[20]     packing[23]  87
    x[20]     packing[24]  141
    x[20]     packing[26]  32
    x[20]     packing[27]  156
    x[20]     packing[28]  87
    x[20]     packing[29]  170
    x[20]     packing[30]  197
    x[20]     packing[32]  173
    x[20]     packing[33]  158
    x[20]     packing[35]  118
    x[20]     packing[37]  131
    x[20]     packing[38]  149
    x[20]     packing[39]  195
    x[20]     packing[44]  44
    x[20]     packing[45]  81
    x[20]     packing[46]  106
    x[20]     packing[47]  78
    x[20]     packing[48]  37
    x[20]     packing[49]  186
    x[20]     R52       1
    MARKER    'MARKER'                 'INTEND'
RHS
    RHS1      packing[0]  837
    RHS1      packing[1]  835
    RHS1      packing[2]  769
    RHS1      packing[3]  774
    RHS1      packing[4]  673
    RHS1      packing[5]  663
    RHS1      packing[6]  979
    RHS1      packing[7]  863
    RHS1      packing[8]  658
    RHS1      packing[9]  454
    RHS1      packing[10]  911
    RHS1      packing[11]  717
    RHS1      packing[12]  1053
    RHS1      packing[13]  860
    RHS1      packing[14]  893
    RHS1      packing[15]  1121
    RHS1      packing[16]  720
    RHS1      packing[17]  554
    RHS1      packing[18]  899
    RHS1      packing[19]  777
    RHS1      packing[20]  779
    RHS1      packing[21]  738
    RHS1      packing[22]  778
    RHS1      packing[23]  774
    RHS1      packing[24]  613
    RHS1      packing[25]  620
    RHS1      packing[26]  966
    RHS1      packing[27]  805
    RHS1      packing[28]  774
    RHS1      packing[29]  826
    RHS1      packing[30]  774
    RHS1      packing[31]  710
    RHS1      packing[32]  699
    RHS1      packing[33]  618
    RHS1      packing[34]  592
    RHS1      packing[35]  853
    RHS1      packing[36]  869
    RHS1      packing[37]  757
    RHS1      packing[38]  653
    RHS1      packing[39]  907
    RHS1      packing[40]  967
    RHS1      packing[41]  739
    RHS1      packing[42]  537
    RHS1      packing[43]  492
    RHS1      packing[44]  791
    RHS1      packing[45]  894
    RHS1      packing[46]  588
    RHS1      packing[47]  779
    RHS1      packing[48]  1133
    RHS1      packing[49]  739
    RHS1      R52       6
BOUNDS
 BV BND1      x[1]    
 BV BND1      x[2]    
 BV BND1      x[3]    
 BV BND1      x[4]    
 BV BND1      x[5]    
 BV BND1      x[6]    
 BV BND1      x[7]    
 BV BND1      x[8]    
 BV BND1      x[9]    
 BV BND1      x[10]   
 BV BND1      x[11]   
 BV BND1      x[12]   
 BV BND1      x[13]   
 BV BND1      x[14]   
 BV BND1      x[15]   
 BV BND1      x[16]   
 BV BND1      x[17]   
 BV BND1      x[18]   
 BV BND1      x[19]   
 BV BND1      x[20]   
ENDATA
